; benchmark generated from python API
(set-info :status unknown)
(declare-datatypes ((RealState 0)) (((RMk1 (rval1 Real)) (RMk2 (rval2 Real)))))
 (declare-fun I1uscore1dollarskuscore367 () Real)
(declare-fun ep () Real)
(declare-fun V () Real)
(declare-fun v2uscore1dollarskuscore367 () Real)
(declare-fun v1uscore1dollarskuscore367 () Real)
(declare-fun t378uscore0 () Real)
(declare-fun A () Real)
(declare-fun v2 () Real)
(declare-fun v1 () Real)
(declare-fun B () Real)
(declare-fun x2 () Real)
(declare-fun xI2 () Real)
(declare-fun I2 () Real)
(declare-fun x1 () Real)
(declare-fun xI1 () Real)
(declare-fun I1 () Real)
(declare-fun I2uscore1dollarskuscore367 () Real)
(declare-fun x1uscore1dollarskuscore237 () Real)
(declare-fun x2uscore1dollarskuscore256 () Real)
(assert
 (let (($x33 (exists ((ts378uscore0_st RealState) (val!6 Real) )(let (($x78 (= I1uscore1dollarskuscore367 2.0)))
 (let (($x92 (or $x78 (= 1.0 2.0))))
 (let (($x61 (>= v2uscore1dollarskuscore367 0.0)))
 (let (($x152 (>= v1uscore1dollarskuscore367 0.0)))
 (let (($x194 (and (and (and $x152 (<= v1uscore1dollarskuscore367 V)) $x61) (<= v2uscore1dollarskuscore367 V))))
 (let (($x142 (=> (and (<= 0.0 (rval2 ts378uscore0_st)) (<= (rval2 ts378uscore0_st) t378uscore0)) (and $x194 (<= (+ (rval2 ts378uscore0_st) 0.0) ep)))))
 (let (($x53 (>= t378uscore0 0.0)))
 (let (($x99 (>= A 0.0)))
 (let (($x32 (>= v2 0.0)))
 (let (($x164 (>= v1 0.0)))
 (let (($x177 (= I2 2.0)))
 (let (($x182 (= I1 2.0)))
 (let (($x26 (= I2uscore1dollarskuscore367 2.0)))
 (let (($x36 (= I2uscore1dollarskuscore367 0.0)))
 (let (($x93 (= xI1 x1uscore1dollarskuscore237)))
 (let (($x104 (= v1uscore1dollarskuscore367 V)))
 (let (($x146 (= xI2 x2uscore1dollarskuscore256)))
 (let (($x140 (= v2uscore1dollarskuscore367 V)))
 (let (($x76 (and (and (and (and (and (and $x140 $x146) $x104) $x93) $x36) $x26) $x182)))
 (let (($x21 (and (and (and (and $x76 (< xI1 x1)) $x177) (< xI2 x2)) (> B 0.0))))
 (let (($x54 (and (and (and (and (and $x21 $x164) (<= v1 V)) $x32) (<= v2 V)) $x99)))
 (let (($x44 (and (and $x54 (> V 0.0)) (> ep 0.0))))
 (let (($x94 (not (= ts378uscore0_st (RMk1 val!6)))))
 (and $x94 (=> (and $x44 $x53 $x142) $x92))))))))))))))))))))))))))
 ))
 (not $x33)))
(check-sat)
